(set-logic LIA)

(declare-const y Int)
(declare-const y! Int)
(declare-const x Int)
(declare-const x! Int)

(declare-const y_20 Int)
(declare-const y_15 Int)
(declare-const y_14 Int)
(declare-const x_13 Int)

(define-fun inv-f((x Int)(y Int)) Bool
